# =========================
# DIMENSIONES
# =========================

param S := 20;
param P := 22;

param alpha := 1;
param beta  := 0;
param gamma := 1;
param BigM  := 5000;

# =========================
# SERVIDORES (MEM, CPU, COST)
# =========================

param : M   U  COST :=
1    14   0.5   0
2    12   0.5   0
3    15   0.5   0
4    12   0.5   0
5    195  1.0   12
6    173  1.0   14
7    171  1.0   15
8    173  1.0   10
9    176  1.0   11
10   179  1.0   10
11   158  1.0   14
12   178  1.0   18
13   171  1.0   14
14   174  1.0   12
15   183  1.0   15
16   192  1.0   12
17   168  1.0   12
18   162  1.0   10
19   169  1.0   17
20   223  1.0   28
21   215  1.0   29
22   1669 1.0   41
;

# =========================
# TAREAS
# id  C   T   D   ac  Mem
# =========================

param : 
C   T   D   ac  MemTask :=
0    11   991  991  0    7
1    11   991  991  0    7
2    11   991  991  0    7
3    23   991  991  0    8
4    68   991  991  0    15
5    91   991  991  0    15
6    15   991  991  0    22
7    8    991  991  0    22
8    20   991  991  0    15
9    64   991  991  0    18
10   59   991  991  0    22
11   70   991  991  0    15
12   90   991  991  0    18
13   74   991  991  0    20
14   45   991  991  0    20
15   47   991  991  0    18
16   58   991  991  0    15
17   90   991  991  0    22
18   49   991  991  0    15
19   87   991  991  0    20
;

# =========================
# SERVIDORES FIJOS
# =========================
# 0 = libre

param ServidorFijo :=
0    1
1    2
2    3
3    4
;

# =========================
# PRECEDENCIAS (DAG)
# τ_h ≺ τ_i
# =========================

set PRECEDENCES :=
(0,4)
(0,7)
(0,8)
(0,9)
(0,11)
(0,17)
(0,18)
(1,5)
(1,12)
(1,13)
(2,4)
(2,6)
(2,7)
(2,15)
(4,6)
(4,7)
(4,9)
(4,11)
(4,12)
(4,15)
(4,16)
(4,19)
(5,8)
(5,9)
(5,10)
(5,13)
(5,14)
(5,15)
(5,16)
(5,17)
(5,18)
(5,19)
(6,8)
(6,14)
(6,19)
(7,9)
(7,13)
(7,15)
(8,15)
(9,11)
(9,13)
(9,16)
(10,13)
(10,16)
(10,17)
(10,18)
(11,3)
(11,12)
(11,13)
(11,19)
(13,15)
(14,16)
(15,16)
(15,18)
(15,19)
(16,17)
(16,19)
;

# =========================
# DELAYS DE COMUNICACIÓN
# =========================

param Delta :=
[1,1]   0    [1,2]   1000 [1,3]   1000 [1,4]   1000 [1,5]   2    [1,6]   2   
[1,7]   2    [1,8]   2    [1,9]   2    [1,10]   2    [1,11]   2    [1,12]   2   
[1,13]   2    [1,14]   2    [1,15]   2    [1,16]   2    [1,17]   2    [1,18]   2   
[1,19]   2    [1,20]   4    [1,21]   4    [1,22]   6   

[2,1]   1000 [2,2]   0    [2,3]   1000 [2,4]   1000 [2,5]   2    [2,6]   2   
[2,7]   2    [2,8]   2    [2,9]   2    [2,10]   2    [2,11]   2    [2,12]   2   
[2,13]   2    [2,14]   2    [2,15]   2    [2,16]   2    [2,17]   2    [2,18]   2   
[2,19]   2    [2,20]   4    [2,21]   4    [2,22]   6   

[3,1]   1000 [3,2]   1000 [3,3]   0    [3,4]   1000 [3,5]   2    [3,6]   2   
[3,7]   2    [3,8]   2    [3,9]   2    [3,10]   2    [3,11]   2    [3,12]   2   
[3,13]   2    [3,14]   2    [3,15]   2    [3,16]   2    [3,17]   2    [3,18]   2   
[3,19]   2    [3,20]   4    [3,21]   4    [3,22]   6   

[4,1]   1000 [4,2]   1000 [4,3]   1000 [4,4]   0    [4,5]   2    [4,6]   2   
[4,7]   2    [4,8]   2    [4,9]   2    [4,10]   2    [4,11]   2    [4,12]   2   
[4,13]   2    [4,14]   2    [4,15]   2    [4,16]   2    [4,17]   2    [4,18]   2   
[4,19]   2    [4,20]   4    [4,21]   4    [4,22]   6   

[5,1]   2    [5,2]   2    [5,3]   2    [5,4]   2    [5,5]   0    [5,6]   1000
[5,7]   1000 [5,8]   1000 [5,9]   1000 [5,10]   1000 [5,11]   1000 [5,12]   1000
[5,13]   1000 [5,14]   1000 [5,15]   1000 [5,16]   1000 [5,17]   1000 [5,18]   1000
[5,19]   1000 [5,20]   3    [5,21]   3    [5,22]   4   

[6,1]   2    [6,2]   2    [6,3]   2    [6,4]   2    [6,5]   1000 [6,6]   0   
[6,7]   1000 [6,8]   1000 [6,9]   1000 [6,10]   1000 [6,11]   1000 [6,12]   1000
[6,13]   1000 [6,14]   1000 [6,15]   1000 [6,16]   1000 [6,17]   1000 [6,18]   1000
[6,19]   1000 [6,20]   3    [6,21]   3    [6,22]   4   

[7,1]   2    [7,2]   2    [7,3]   2    [7,4]   2    [7,5]   1000 [7,6]   1000
[7,7]   0    [7,8]   1000 [7,9]   1000 [7,10]   1000 [7,11]   1000 [7,12]   1000
[7,13]   1000 [7,14]   1000 [7,15]   1000 [7,16]   1000 [7,17]   1000 [7,18]   1000
[7,19]   1000 [7,20]   3    [7,21]   3    [7,22]   4   

[8,1]   2    [8,2]   2    [8,3]   2    [8,4]   2    [8,5]   1000 [8,6]   1000
[8,7]   1000 [8,8]   0    [8,9]   1000 [8,10]   1000 [8,11]   1000 [8,12]   1000
[8,13]   1000 [8,14]   1000 [8,15]   1000 [8,16]   1000 [8,17]   1000 [8,18]   1000
[8,19]   1000 [8,20]   3    [8,21]   3    [8,22]   4   

[9,1]   2    [9,2]   2    [9,3]   2    [9,4]   2    [9,5]   1000 [9,6]   1000
[9,7]   1000 [9,8]   1000 [9,9]   0    [9,10]   1000 [9,11]   1000 [9,12]   1000
[9,13]   1000 [9,14]   1000 [9,15]   1000 [9,16]   1000 [9,17]   1000 [9,18]   1000
[9,19]   1000 [9,20]   3    [9,21]   3    [9,22]   4   

[10,1]   2    [10,2]   2    [10,3]   2    [10,4]   2    [10,5]   1000 [10,6]   1000
[10,7]   1000 [10,8]   1000 [10,9]   1000 [10,10]   0    [10,11]   1000 [10,12]   1000
[10,13]   1000 [10,14]   1000 [10,15]   1000 [10,16]   1000 [10,17]   1000 [10,18]   1000
[10,19]   1000 [10,20]   3    [10,21]   3    [10,22]   4   

[11,1]   2    [11,2]   2    [11,3]   2    [11,4]   2    [11,5]   1000 [11,6]   1000
[11,7]   1000 [11,8]   1000 [11,9]   1000 [11,10]   1000 [11,11]   0    [11,12]   1000
[11,13]   1000 [11,14]   1000 [11,15]   1000 [11,16]   1000 [11,17]   1000 [11,18]   1000
[11,19]   1000 [11,20]   3    [11,21]   3    [11,22]   4   

[12,1]   2    [12,2]   2    [12,3]   2    [12,4]   2    [12,5]   1000 [12,6]   1000
[12,7]   1000 [12,8]   1000 [12,9]   1000 [12,10]   1000 [12,11]   1000 [12,12]   0   
[12,13]   1000 [12,14]   1000 [12,15]   1000 [12,16]   1000 [12,17]   1000 [12,18]   1000
[12,19]   1000 [12,20]   3    [12,21]   3    [12,22]   4   

[13,1]   2    [13,2]   2    [13,3]   2    [13,4]   2    [13,5]   1000 [13,6]   1000
[13,7]   1000 [13,8]   1000 [13,9]   1000 [13,10]   1000 [13,11]   1000 [13,12]   1000
[13,13]   0    [13,14]   1000 [13,15]   1000 [13,16]   1000 [13,17]   1000 [13,18]   1000
[13,19]   1000 [13,20]   3    [13,21]   3    [13,22]   4   

[14,1]   2    [14,2]   2    [14,3]   2    [14,4]   2    [14,5]   1000 [14,6]   1000
[14,7]   1000 [14,8]   1000 [14,9]   1000 [14,10]   1000 [14,11]   1000 [14,12]   1000
[14,13]   1000 [14,14]   0    [14,15]   1000 [14,16]   1000 [14,17]   1000 [14,18]   1000
[14,19]   1000 [14,20]   3    [14,21]   3    [14,22]   4   

[15,1]   2    [15,2]   2    [15,3]   2    [15,4]   2    [15,5]   1000 [15,6]   1000
[15,7]   1000 [15,8]   1000 [15,9]   1000 [15,10]   1000 [15,11]   1000 [15,12]   1000
[15,13]   1000 [15,14]   1000 [15,15]   0    [15,16]   1000 [15,17]   1000 [15,18]   1000
[15,19]   1000 [15,20]   3    [15,21]   3    [15,22]   4   

[16,1]   2    [16,2]   2    [16,3]   2    [16,4]   2    [16,5]   1000 [16,6]   1000
[16,7]   1000 [16,8]   1000 [16,9]   1000 [16,10]   1000 [16,11]   1000 [16,12]   1000
[16,13]   1000 [16,14]   1000 [16,15]   1000 [16,16]   0    [16,17]   1000 [16,18]   1000
[16,19]   1000 [16,20]   3    [16,21]   3    [16,22]   4   

[17,1]   2    [17,2]   2    [17,3]   2    [17,4]   2    [17,5]   1000 [17,6]   1000
[17,7]   1000 [17,8]   1000 [17,9]   1000 [17,10]   1000 [17,11]   1000 [17,12]   1000
[17,13]   1000 [17,14]   1000 [17,15]   1000 [17,16]   1000 [17,17]   0    [17,18]   1000
[17,19]   1000 [17,20]   3    [17,21]   3    [17,22]   4   

[18,1]   2    [18,2]   2    [18,3]   2    [18,4]   2    [18,5]   1000 [18,6]   1000
[18,7]   1000 [18,8]   1000 [18,9]   1000 [18,10]   1000 [18,11]   1000 [18,12]   1000
[18,13]   1000 [18,14]   1000 [18,15]   1000 [18,16]   1000 [18,17]   1000 [18,18]   0   
[18,19]   1000 [18,20]   3    [18,21]   3    [18,22]   4   

[19,1]   2    [19,2]   2    [19,3]   2    [19,4]   2    [19,5]   1000 [19,6]   1000
[19,7]   1000 [19,8]   1000 [19,9]   1000 [19,10]   1000 [19,11]   1000 [19,12]   1000
[19,13]   1000 [19,14]   1000 [19,15]   1000 [19,16]   1000 [19,17]   1000 [19,18]   1000
[19,19]   0    [19,20]   3    [19,21]   3    [19,22]   4   

[20,1]   4    [20,2]   4    [20,3]   4    [20,4]   4    [20,5]   3    [20,6]   3   
[20,7]   3    [20,8]   3    [20,9]   3    [20,10]   3    [20,11]   3    [20,12]   3   
[20,13]   3    [20,14]   3    [20,15]   3    [20,16]   3    [20,17]   3    [20,18]   3   
[20,19]   3    [20,20]   0    [20,21]   1000 [20,22]   4   

[21,1]   4    [21,2]   4    [21,3]   4    [21,4]   4    [21,5]   3    [21,6]   3   
[21,7]   3    [21,8]   3    [21,9]   3    [21,10]   3    [21,11]   3    [21,12]   3   
[21,13]   3    [21,14]   3    [21,15]   3    [21,16]   3    [21,17]   3    [21,18]   3   
[21,19]   3    [21,20]   1000 [21,21]   0    [21,22]   4   

[22,1]   6    [22,2]   6    [22,3]   6    [22,4]   6    [22,5]   4    [22,6]   4   
[22,7]   4    [22,8]   4    [22,9]   4    [22,10]   4    [22,11]   4    [22,12]   4   
[22,13]   4    [22,14]   4    [22,15]   4    [22,16]   4    [22,17]   4    [22,18]   4   
[22,19]   4    [22,20]   4    [22,21]   4    [22,22]   0   
;
